#Simple chute wear test

atom_style    granular
atom_modify   map array
boundary      f f f
newton        off

communicate   single vel yes

units         si
#=========================VARIABLE=============================

variable Xmin equal -0.5
variable Xmax equal  0.5
variable Ymin equal -0.5
variable Ymax equal  0.5
variable Zmin equal -0.5
variable Zmax equal  0.5

#--------------------------------------------------------------
variable NumberOfMaterial        equal  1
#--------------------------------------------------------------
variable YOUNGSMODULUS1          equal  5.e6
variable POISSONSRATIO1          equal  0.45
variable COEFFICIENTRESTITUTION1 equal  0.3
variable COEFFICIENTFRICTION1    equal  0.5  
variable K_FINNIE                equal  1.0 
#--------------------------------------------------------------
variable DENSITY                 equal  2500
#--------------------------------------------------------------
variable NRADII                  equal  2
variable RADIUS1                 equal  0.0015
variable VOLUMEFRACTIONRADIUS1   equal  0.3
variable RADIUS2                 equal  0.0025
variable VOLUMEFRACTIONRADIUS2   equal  0.7
#--------------------------------------------------------------
variable dt   	   equal  0.00001
variable RUNTime   equal  1
variable TIMESTEP  equal  ${RUNTime}/${dt}
#--------------------------------------------------------------
variable MASS          equal  0.1
variable MASSRATE      equal  ${MASS}/${RUNTime}
#--------------------------------------------------------------
variable NUMBEROFPARTICLE          equal  6000
#==============================================================
region        domain block ${Xmin} ${Xmax} ${Ymin} ${Ymax} ${Zmin} ${Zmax} units box
create_box    ${NumberOfMaterial} domain

neighbor      0.002 bin
neigh_modify  delay 0


#Material properties required for new pair styles

fix  m1 all property/global youngsModulus          peratomtype                         ${YOUNGSMODULUS1}
fix  m2 all property/global poissonsRatio          peratomtype                         ${POISSONSRATIO1}
fix  m3 all property/global coefficientRestitution peratomtypepair ${NumberOfMaterial} ${COEFFICIENTRESTITUTION1}
fix  m4 all property/global coefficientFriction    peratomtypepair ${NumberOfMaterial} ${COEFFICIENTFRICTION1}
fix  m5 all property/global k_finnie               peratomtypepair ${NumberOfMaterial} ${K_FINNIE}



#New pair style
pair_style  gran model hertz tangential history #Hertzian without cohesion
pair_coeff  * *
timestep    ${dt}
fix  gravi all gravity 9.81 vector 0.0 0.0 -1.0

#the chute
fix  cad all mesh/surface file meshes/simple_chute.stl type 1 scale 0.001 
fix  sphe all mesh/surface file meshes/SP.stl type 1 scale 0.001   
fix  inface all mesh/surface file meshes/insertion_face.stl type 1 scale 0.001
fix  granwalls all wall/gran model hertz tangential history mesh n_meshes 2 meshes cad sphe

#distributions for insertion
fix  pts1 all particletemplate/sphere 15485863 atom_type 1 density constant ${DENSITY} radius constant ${RADIUS1}
fix  pts2 all particletemplate/sphere 15485867 atom_type 1 density constant ${DENSITY} radius constant ${RADIUS2}
fix  pdd1 all particledistribution/discrete 32452843  ${NRADII} pts1 ${VOLUMEFRACTIONRADIUS1} pts2 ${VOLUMEFRACTIONRADIUS2}

#region and insertion
group  nve_group region domain
#particle insertion
fix    ins nve_group insert/stream seed 32452867 distributiontemplate pdd1 &
       nparticles ${NUMBEROFPARTICLE} massrate ${MASSRATE} insert_every 1000 overlapcheck yes all_in no vel constant 0.0 0.0 -1.0 &
       insertion_face inface 

#apply nve integration to all particles that are inserted as single particles
fix    integr nve_group nve/sphere

#output settings, include total thermal energy
compute       1 all erotate/sphere
thermo_style  custom step atoms ke c_1 vol
thermo        1000
thermo_modify lost ignore norm no

#insert the first particles so that dump is not empty
run    1
dump   dmp all custom/vtk 200 post/chute_*.vtk id type type x y z ix iy iz vx vy vz fx fy fz omegax omegay omegaz radius 
dump   dumpstress all mesh/gran/VTK 200 post/mesh_*.vtk stress wear cad

#insert particles
run    ${TIMESTEP} upto
unfix  ins

 
