# vtk DataFile Version 4.0
Generated by LIGGGHTS
ASCII
DATASET POLYDATA
POINTS 84 float
-0.1 -0.1 0.04 -0.1 0.1 0.04 -0.1 -0.1 0 
-0.1 0.1 0.04 -0.1 0.1 0 -0.1 -0.1 0 
-0.0975 -0.1 0.01 -0.1 -0.1 0.04 -0.1 -0.1 0 
0.0975 -0.1 0.01 -0.0975 -0.1 0.01 -0.1 -0.1 0 
0.1 -0.1 0 0.0975 -0.1 0.01 -0.1 -0.1 0 
-0.1 0.1 0 0.1 -0.1 0 -0.1 -0.1 0 
0.1 -0.1 0.04 0.0975 -0.1 0.01 0.1 -0.1 0 
0.1 0.1 0 0.1 -0.1 0.04 0.1 -0.1 0 
-0.1 0.1 0 0.1 0.1 0 0.1 -0.1 0 
-0.0975 -0.1 0.04 -0.1 -0.1 0.04 -0.0975 -0.1 0.01 
0.0975 0.0975 0.01 -0.0975 0.0975 0.01 -0.0975 -0.1 0.01 
0.0975 -0.1 0.01 0.0975 0.0975 0.01 -0.0975 -0.1 0.01 
-0.0975 0.0975 0.01 -0.0975 -0.1 0.04 -0.0975 -0.1 0.01 
0.1 -0.1 0.04 0.0975 -0.1 0.04 0.0975 -0.1 0.01 
0.0975 -0.1 0.04 0.0975 0.0975 0.04 0.0975 -0.1 0.01 
0.0975 0.0975 0.04 0.0975 0.0975 0.01 0.0975 -0.1 0.01 
-0.0975 -0.1 0.04 -0.1 0.1 0.04 -0.1 -0.1 0.04 
-0.0975 0.0975 0.01 -0.0975 0.0975 0.04 -0.0975 -0.1 0.04 
-0.0975 0.0975 0.04 -0.1 0.1 0.04 -0.0975 -0.1 0.04 
0.1 -0.1 0.04 0.0975 0.0975 0.04 0.0975 -0.1 0.04 
0.1 0.1 0 0.1 0.1 0.04 0.1 -0.1 0.04 
0.1 0.1 0.04 0.0975 0.0975 0.04 0.1 -0.1 0.04 
0.0975 0.0975 0.01 -0.0975 0.0975 0.04 -0.0975 0.0975 0.01 
0.0975 0.0975 0.04 -0.0975 0.0975 0.04 0.0975 0.0975 0.01 
0.0975 0.0975 0.04 0.1 0.1 0.04 -0.0975 0.0975 0.04 
0.1 0.1 0.04 -0.1 0.1 0.04 -0.0975 0.0975 0.04 
-0.1 0.1 0.04 0.1 0.1 0.04 -0.1 0.1 0 
0.1 0.1 0.04 0.1 0.1 0 -0.1 0.1 0 

POLYGONS 28 112
3 0 1 2 
3 3 4 5 
3 6 7 8 
3 9 10 11 
3 12 13 14 
3 15 16 17 
3 18 19 20 
3 21 22 23 
3 24 25 26 
3 27 28 29 
3 30 31 32 
3 33 34 35 
3 36 37 38 
3 39 40 41 
3 42 43 44 
3 45 46 47 
3 48 49 50 
3 51 52 53 
3 54 55 56 
3 57 58 59 
3 60 61 62 
3 63 64 65 
3 66 67 68 
3 69 70 71 
3 72 73 74 
3 75 76 77 
3 78 79 80 
3 81 82 83 

CELL_DATA 28
FIELD FieldData 3
normal_stress_average 1 28 double
0 -0 -0 0 0 -0 0 0 0 
-0 25.8599 18.8139 0.0142244 -0 0 -0 0 0 
0 0 0 0 0.000497991 -0 0 0 0 
0 
shear_stress_average 1 28 double
0 0 0 0 0 0 0 0 0 
0 1.90932 1.10887 0.00711221 0 0 0 0 0 
0 0 0 0 0.000248995 0 0 0 0 
0 
wear 1 28 double
0 0 0 0 0 0 0 0 0 
0 0.212982 0.210241 0.0122495 0 0.000665896 0.00920857 0 0.000100484 
0 0 0 0 0.00898971 0.00114019 0 0 0 
0 
